96 84 2 9 97 47 93 99 37 54 82 83 59 70 60 65 13 73 14 72 71 11 38 27 1 63 33 48 90 3 89 92 67 45 43 25 80 86 56 85 91 68 49 74 30 66 17 4 57 40 32 50 88 62 6 36 94 21 0 44 15 79 22 53 69 98 75 19 58 95 26 39 34 18 5 16 81 35 23 52 29 61 41 31 55 7 78 12 46 64 8 42 24 10 51 28 87 77 76 20 

